p tw 20 53
0 1
0 3
0 8
0 4
0 5
0 15
1 2
1 3
2 7
2 11
2 4
2 9
2 15
3 9
3 16
3 11
4 5
4 16
4 14
5 16
5 17
5 12
5 19
5 7
6 7
6 12
6 13
6 18
7 10
7 14
7 8
8 14
8 12
8 18
9 14
9 11
10 11
10 15
10 17
10 19
11 18
12 13
12 16
12 15
13 14
13 18
13 16
14 15
14 16
15 18
16 18
16 19
16 17
